p cnf 134 267
1 2 3 4 5 0
-1 -2 0
-1 -3 0
-1 -4 0
-1 -5 0
-2 -3 0
-2 -4 0
-2 -5 0
-3 -4 0
-3 -5 0
-4 -5 0
-1 -95 52 0
-12 -96 58 0
-13 -97 64 0
-14 -98 70 0
-15 -99 76 0
-16 -100 82 0
-17 -101 88 0
-18 -102 94 0
-2 -103 52 0
-20 -104 58 0
-21 -105 64 0
-22 -106 70 0
-23 -107 76 0
-24 -108 82 0
-25 -109 88 0
-26 -110 94 0
-3 -111 52 0
-28 -112 58 0
-29 -113 64 0
-30 -114 70 0
-31 -115 76 0
-32 -116 82 0
-33 -117 88 0
-34 -118 94 0
-4 -119 52 0
-36 -120 58 0
-37 -121 64 0
-38 -122 70 0
-39 -123 76 0
-40 -124 82 0
-41 -125 88 0
-42 -126 94 0
-5 -127 52 0
-44 -128 58 0
-45 -129 64 0
-46 -130 70 0
-47 -131 76 0
-48 -132 82 0
-49 -133 88 0
-50 -134 94 0
-1 12 0
1 -12 0
-12 13 0
12 -13 0
-13 14 0
13 -14 0
-14 15 0
14 -15 0
-15 16 0
15 -16 0
-16 17 0
16 -17 0
-17 18 0
17 -18 0
-18 19 0
18 -19 0
-2 20 0
2 -20 0
-20 21 0
20 -21 0
-21 22 0
21 -22 0
-22 23 0
22 -23 0
-23 24 0
23 -24 0
-24 25 0
24 -25 0
-25 26 0
25 -26 0
-26 27 0
26 -27 0
-3 28 0
3 -28 0
-28 29 0
28 -29 0
-29 30 0
29 -30 0
-30 31 0
30 -31 0
-31 32 0
31 -32 0
-32 33 0
32 -33 0
-33 34 0
33 -34 0
-34 35 0
34 -35 0
-4 36 0
4 -36 0
-36 37 0
36 -37 0
-37 38 0
37 -38 0
-38 39 0
38 -39 0
-39 40 0
39 -40 0
-40 41 0
40 -41 0
-41 42 0
41 -42 0
-42 43 0
42 -43 0
-5 44 0
5 -44 0
-44 45 0
44 -45 0
-45 46 0
45 -46 0
-46 47 0
46 -47 0
-47 48 0
47 -48 0
-48 49 0
48 -49 0
-49 50 0
49 -50 0
-50 51 0
50 -51 0
-6 52 0
-1 -95 7 0
-7 1 0
-7 95 0
-2 -103 8 0
-8 2 0
-8 103 0
-3 -111 9 0
-9 3 0
-9 111 0
-4 -119 10 0
-10 4 0
-10 119 0
-5 -127 11 0
-11 5 0
-11 127 0
7 8 9 10 11 6 -52 0
-52 58 0
-12 -96 53 0
-53 12 0
-53 96 0
-20 -104 54 0
-54 20 0
-54 104 0
-28 -112 55 0
-55 28 0
-55 112 0
-36 -120 56 0
-56 36 0
-56 120 0
-44 -128 57 0
-57 44 0
-57 128 0
53 54 55 56 57 52 -58 0
-58 64 0
-13 -97 59 0
-59 13 0
-59 97 0
-21 -105 60 0
-60 21 0
-60 105 0
-29 -113 61 0
-61 29 0
-61 113 0
-37 -121 62 0
-62 37 0
-62 121 0
-45 -129 63 0
-63 45 0
-63 129 0
59 60 61 62 63 58 -64 0
-64 70 0
-14 -98 65 0
-65 14 0
-65 98 0
-22 -106 66 0
-66 22 0
-66 106 0
-30 -114 67 0
-67 30 0
-67 114 0
-38 -122 68 0
-68 38 0
-68 122 0
-46 -130 69 0
-69 46 0
-69 130 0
65 66 67 68 69 64 -70 0
-70 76 0
-15 -99 71 0
-71 15 0
-71 99 0
-23 -107 72 0
-72 23 0
-72 107 0
-31 -115 73 0
-73 31 0
-73 115 0
-39 -123 74 0
-74 39 0
-74 123 0
-47 -131 75 0
-75 47 0
-75 131 0
71 72 73 74 75 70 -76 0
-76 82 0
-16 -100 77 0
-77 16 0
-77 100 0
-24 -108 78 0
-78 24 0
-78 108 0
-32 -116 79 0
-79 32 0
-79 116 0
-40 -124 80 0
-80 40 0
-80 124 0
-48 -132 81 0
-81 48 0
-81 132 0
77 78 79 80 81 76 -82 0
-82 88 0
-17 -101 83 0
-83 17 0
-83 101 0
-25 -109 84 0
-84 25 0
-84 109 0
-33 -117 85 0
-85 33 0
-85 117 0
-41 -125 86 0
-86 41 0
-86 125 0
-49 -133 87 0
-87 49 0
-87 133 0
83 84 85 86 87 82 -88 0
-88 94 0
-18 -102 89 0
-89 18 0
-89 102 0
-26 -110 90 0
-90 26 0
-90 110 0
-34 -118 91 0
-91 34 0
-91 118 0
-42 -126 92 0
-92 42 0
-92 126 0
-50 -134 93 0
-93 50 0
-93 134 0
89 90 91 92 93 88 -94 0
